CPXPARAM_TimeLimit                               3600
CPXPARAM_Read_DataCheck                          1
CPXPARAM_MIP_Strategy_HeuristicFreq              -1
Parallel mode: deterministic, using up to 8 threads for concurrent optimization.
Tried aggregator 1 time.
LP Presolve eliminated 206 rows and 0 columns.
Reduced LP has 17774 rows, 3151 columns, and 52348 nonzeros.
Presolve time = 0.00 sec. (8.06 ticks)

Iteration log . . .
Iteration:     1   Dual objective     =           932.000000
Perturbation started.
Iteration:   380   Dual objective     =           932.000000
Iteration:   403   Dual objective     =           932.000177
Initializing dual steep norms . . .
Iteration:   404   Dual objective     =           932.000459
Iteration:   808   Dual objective     =           932.001760
Iteration:  1166   Dual objective     =           932.007736
Iteration:  1557   Dual objective     =           932.012320
Iteration:  1919   Dual objective     =           932.015526
Iteration:  2254   Dual objective     =           932.017394
Iteration:  2504   Dual objective     =           932.018648
Iteration:  2816   Dual objective     =           932.024064
Iteration:  3109   Dual objective     =           932.026163
Iteration:  3399   Dual objective     =           932.032394
Iteration:  3699   Dual objective     =           953.762684
Iteration:  3974   Dual objective     =          1091.348024
Iteration:  4280   Dual objective     =          1100.874274
Iteration:  4608   Dual objective     =          1119.527821
Iteration:  4981   Dual objective     =          1119.527842
Removing perturbation.

Primal simplex solved model.

